other_instances/dzn_instances/margot.dzn
% Dog shape

num_points = 48;

seq_points = [|3,0
              |5,0
              |5,1
              |4,1
              |4,3
              |6,3
              |6,0
              |8,0
              |8,1
              |7,1
              |7,3
              |11,3
              |11,0
              |13,0
              |13,1
              |12,1
              |12,3
              |14,3
              |14,2
              |15,2
              |15,4
              |13,4
              |13,5
              |14,5
              |14,6
              |15,6
              |15,7
              |18,7
              |18,9
              |15,9
              |15,10
              |16,10
              |16,11
              |14,11
              |14,9
              |13,9
              |13,8
              |2,8
              |2,9
              |1,9
              |1,10
              |0,10
              |0,8
              |1,8
              |1,7
              |2,7
              |2,6
              |3,6
             |];