other_instances/lp_instances/margot.lp
% Dog shape

point(3,0).
point(5,0).
point(5,1).
point(4,1).
point(4,3).
point(6,3).
point(6,0).
point(8,0).
point(8,1).
point(7,1).
point(7,3).
point(11,3).
point(11,0).
point(13,0).
point(13,1).
point(12,1).
point(12,3).
point(14,3).
point(14,2).
point(15,2).
point(15,4).
point(13,4).
point(13,5).
point(14,5).
point(14,6).
point(15,6).
point(15,7).
point(18,7).
point(18,9).
point(15,9).
point(15,10).
point(16,10).
point(16,11).
point(14,11).
point(14,9).
point(13,9).
point(13,8).
point(2,8).
point(2,9).
point(1,9).
point(1,10).
point(0,10).
point(0,8).
point(1,8).
point(1,7).
point(2,7).
point(2,6).
point(3,6).